Instance name : SB_bar-n100-6
Authors : 
Date : 
Reference 
Solution
Route 1 : 4 5 54 32 7 57 82 25 40 48 11 90 98 75 8 55 58 19 61 36 69 46 86 27 77 96 
Route 2 : 20 43 93 16 70 66 12 15 62 42 28 92 44 65 13 26 45 63 76 78 94 95 14 64 39 89 
Route 3 : 31 34 81 29 79 21 71 6 84 56 17 67 3 49 99 10 53 60 24 50 100 74 
Route 4 : 38 22 72 88 41 47 91 37 97 30 87 1 51 18 80 9 68 23 2 73 35 85 52 59 33 83 
